<number of tasks>
50

<cycle time>
1000

<order strength>
0.202


<task times>
1 112
2 151
3 69
4 582
5 508
6 83
7 130
8 487
9 249
10 259
11 212
12 153
13 80
14 48
15 296
16 25
17 238
18 226
19 549
20 478
21 612
22 454
23 150
24 121
25 161
26 195
27 244
28 138
29 129
30 470
31 317
32 101
33 255
34 524
35 380
36 566
37 221
38 316
39 181
40 230
41 78
42 159
43 185
44 226
45 63
46 141
47 223
48 68
49 576
50 115

<precedence relations>
1,34
2,34
3,10
3,11
3,12
3,15
4,14
4,25
4,34
5,31
5,47
6,9
6,13
6,14
9,34
10,16
11,17
13,18
14,20
14,23
15,19
16,22
17,23
18,21
18,24
18,25
18,27
18,33
19,38
20,26
21,29
22,28
22,33
23,33
23,50
26,30
26,31
27,32
28,34
29,35
30,36
30,38
31,37
33,45
34,39
34,40
34,41
34,42
35,43
36,44
37,45
40,48
41,49
42,50
43,47
44,46

<end>
